Minimize
 obj: 0 X_0_1
Subject To
 out_0:
  + 1 X_0_1 + 1 X_0_2 + 1 X_0_3 + 1 X_0_4
  = 1
 in_0:
  + 1 X_1_0 + 1 X_2_0 + 1 X_3_0 + 1 X_4_0
  = 1
 out_1:
  + 1 X_1_0 + 1 X_1_2 + 1 X_1_3 + 1 X_1_4
  = 1
 in_1:
  + 1 X_0_1 + 1 X_2_1 + 1 X_3_1 + 1 X_4_1
  = 1
 out_2:
  + 1 X_2_0 + 1 X_2_1 + 1 X_2_3 + 1 X_2_4
  = 1
 in_2:
  + 1 X_0_2 + 1 X_1_2 + 1 X_3_2 + 1 X_4_2
  = 1
 out_3:
  + 1 X_3_0 + 1 X_3_1 + 1 X_3_2 + 1 X_3_4
  = 1
 in_3:
  + 1 X_0_3 + 1 X_1_3 + 1 X_2_3 + 1 X_4_3
  = 1
 out_4:
  + 1 X_4_0 + 1 X_4_1 + 1 X_4_2 + 1 X_4_3
  = 1
 in_4:
  + 1 X_0_4 + 1 X_1_4 + 1 X_2_4 + 1 X_3_4
  = 1
 mtz_1_2:
  + 1 U1 - 1 U2 + 4 X_1_2
  <= 3
 mtz_1_3:
  + 1 U1 - 1 U3 + 4 X_1_3
  <= 3
 mtz_1_4:
  + 1 U1 - 1 U4 + 4 X_1_4
  <= 3
 mtz_2_1:
  + 1 U2 - 1 U1 + 4 X_2_1
  <= 3
 mtz_2_3:
  + 1 U2 - 1 U3 + 4 X_2_3
  <= 3
 mtz_2_4:
  + 1 U2 - 1 U4 + 4 X_2_4
  <= 3
 mtz_3_1:
  + 1 U3 - 1 U1 + 4 X_3_1
  <= 3
 mtz_3_2:
  + 1 U3 - 1 U2 + 4 X_3_2
  <= 3
 mtz_3_4:
  + 1 U3 - 1 U4 + 4 X_3_4
  <= 3
 mtz_4_1:
  + 1 U4 - 1 U1 + 4 X_4_1
  <= 3
 mtz_4_2:
  + 1 U4 - 1 U2 + 4 X_4_2
  <= 3
 mtz_4_3:
  + 1 U4 - 1 U3 + 4 X_4_3
  <= 3
 obj1:
  + 830 X_0_1 + 704 X_0_2 + 564 X_0_3 + 177 X_0_4 + 830 X_1_0 + 125 X_1_2 + 307 X_1_3 + 789 X_1_4
  + 704 X_2_0 + 125 X_2_1 + 197 X_2_3 + 668 X_2_4 + 564 X_3_0 + 307 X_3_1 + 197 X_3_2 + 572 X_3_4
  + 177 X_4_0 + 789 X_4_1 + 668 X_4_2 + 572 X_4_3
  <= 1
 obj2:
  + 617 X_0_1 + 122 X_0_2 + 761 X_0_3 + 439 X_0_4 + 617 X_1_0 + 647 X_1_2 + 576 X_1_3 + 534 X_1_4
  + 122 X_2_0 + 647 X_2_1 + 690 X_2_3 + 356 X_2_4 + 761 X_3_0 + 576 X_3_1 + 690 X_3_2 + 336 X_3_4
  + 439 X_4_0 + 534 X_4_1 + 356 X_4_2 + 336 X_4_3
  <= 2
 obj3:
  + 164 X_0_1 + 558 X_0_2 + 442 X_0_3 + 254 X_0_4 + 164 X_1_0 + 660 X_1_2 + 289 X_1_3 + 376 X_1_4
  + 558 X_2_0 + 660 X_2_1 + 797 X_2_3 + 692 X_2_4 + 442 X_3_0 + 289 X_3_1 + 797 X_3_2 + 665 X_3_4
  + 254 X_4_0 + 376 X_4_1 + 692 X_4_2 + 665 X_4_3
  <= 3
 obj4:
  + 361 X_0_1 + 630 X_0_2 + 734 X_0_3 + 511 X_0_4 + 361 X_1_0 + 991 X_1_2 + 1095 X_1_3 + 722 X_1_4
  + 630 X_2_0 + 991 X_2_1 + 105 X_2_3 + 633 X_2_4 + 734 X_3_0 + 1095 X_3_1 + 105 X_3_2 + 718 X_3_4
  + 511 X_4_0 + 722 X_4_1 + 633 X_4_2 + 718 X_4_3
  <= 4
 obj5:
  + 846 X_0_1 + 546 X_0_2 + 251 X_0_3 + 810 X_0_4 + 846 X_1_0 + 337 X_1_2 + 950 X_1_3 + 349 X_1_4
  + 546 X_2_0 + 337 X_2_1 + 615 X_2_3 + 294 X_2_4 + 251 X_3_0 + 950 X_3_1 + 615 X_3_2 + 817 X_3_4
  + 810 X_4_0 + 349 X_4_1 + 294 X_4_2 + 817 X_4_3
  <= 5
 obj6:
  + 338 X_0_1 + 193 X_0_2 + 198 X_0_3 + 550 X_0_4 + 338 X_1_0 + 447 X_1_2 + 180 X_1_3 + 817 X_1_4
  + 193 X_2_0 + 447 X_2_1 + 365 X_2_3 + 658 X_2_4 + 198 X_3_0 + 180 X_3_1 + 365 X_3_2 + 637 X_3_4
  + 550 X_4_0 + 817 X_4_1 + 658 X_4_2 + 637 X_4_3
  <= 6
Bounds
 1 <= U1 <= 4
 1 <= U2 <= 4
 1 <= U3 <= 4
 1 <= U4 <= 4
Binary
 X_0_1
 X_0_2
 X_0_3
 X_0_4
 X_1_0
 X_1_2
 X_1_3
 X_1_4
 X_2_0
 X_2_1
 X_2_3
 X_2_4
 X_3_0
 X_3_1
 X_3_2
 X_3_4
 X_4_0
 X_4_1
 X_4_2
 X_4_3
End
